100
128
6
9
21
32
63
19
7
40
35
49
5
46
33
29
19
42
51
8
31
50
18
55
11
36
18
21
30
42
18
31
12
37
63
28
60
38
21
49
21
23
4
16
45
36
34
10
55
13
15
31
5
13
14
20
17
5
37
23
48
20
10
27
52
54
4
20
31
27
43
17
30
31
20
7
33
46
6
22
48
15
2
32
39
25
20
19
50
42
31
5
21
52
48
26
61
30
59
49
26
31